c nIsolatedPIs 0
c maxPI 32
p cnf 100 205
c gate 33 -10 26 0
-10 -33 0
26 -33 0
10 -26 33 0
c gate 34 -9 -25 0
-9 -34 0
-25 -34 0
9 25 34 0
c gate 35 9 25 0
9 -35 0
25 -35 0
-9 -25 35 0
c gate 36 -34 -35 0
-34 -36 0
-35 -36 0
34 35 36 0
c gate 37 -7 -23 0
-7 -37 0
-23 -37 0
7 23 37 0
c gate 38 7 23 0
7 -38 0
23 -38 0
-7 -23 38 0
c gate 39 -37 -38 0
-37 -39 0
-38 -39 0
37 38 39 0
c gate 40 -6 22 0
-6 -40 0
22 -40 0
6 -22 40 0
c gate 41 2 -18 0
2 -41 0
-18 -41 0
-2 18 41 0
c gate 42 -1 17 0
-1 -42 0
17 -42 0
1 -17 42 0
c gate 43 -41 42 0
-41 -43 0
42 -43 0
41 -42 43 0
c gate 44 -3 19 0
-3 -44 0
19 -44 0
3 -19 44 0
c gate 45 -2 18 0
-2 -45 0
18 -45 0
2 -18 45 0
c gate 46 -44 -45 0
-44 -46 0
-45 -46 0
44 45 46 0
c gate 47 -43 46 0
-43 -47 0
46 -47 0
43 -46 47 0
c gate 48 4 -20 0
4 -48 0
-20 -48 0
-4 20 48 0
c gate 49 3 -19 0
3 -49 0
-19 -49 0
-3 19 49 0
c gate 50 -48 -49 0
-48 -50 0
-49 -50 0
48 49 50 0
c gate 51 -47 50 0
-47 -51 0
50 -51 0
47 -50 51 0
c gate 52 -5 21 0
-5 -52 0
21 -52 0
5 -21 52 0
c gate 53 -4 20 0
-4 -53 0
20 -53 0
4 -20 53 0
c gate 54 -52 -53 0
-52 -54 0
-53 -54 0
52 53 54 0
c gate 55 -51 54 0
-51 -55 0
54 -55 0
51 -54 55 0
c gate 56 5 -21 0
5 -56 0
-21 -56 0
-5 21 56 0
c gate 57 6 -22 0
6 -57 0
-22 -57 0
-6 22 57 0
c gate 58 -56 -57 0
-56 -58 0
-57 -58 0
56 57 58 0
c gate 59 -55 58 0
-55 -59 0
58 -59 0
55 -58 59 0
c gate 60 -40 -59 0
-40 -60 0
-59 -60 0
40 59 60 0
c gate 61 -39 -60 0
-39 -61 0
-60 -61 0
39 60 61 0
c gate 62 -8 -24 0
-8 -62 0
-24 -62 0
8 24 62 0
c gate 63 8 24 0
8 -63 0
24 -63 0
-8 -24 63 0
c gate 64 -62 -63 0
-62 -64 0
-63 -64 0
62 63 64 0
c gate 65 -7 23 0
-7 -65 0
23 -65 0
7 -23 65 0
c gate 66 -64 -65 0
-64 -66 0
-65 -66 0
64 65 66 0
c gate 67 -61 66 0
-61 -67 0
66 -67 0
61 -66 67 0
c gate 68 -36 67 0
-36 -68 0
67 -68 0
36 -67 68 0
c gate 69 8 -24 0
8 -69 0
-24 -69 0
-8 24 69 0
c gate 70 -36 69 0
-36 -70 0
69 -70 0
36 -69 70 0
c gate 71 9 -25 0
9 -71 0
-25 -71 0
-9 25 71 0
c gate 72 -70 -71 0
-70 -72 0
-71 -72 0
70 71 72 0
c gate 73 -68 72 0
-68 -73 0
72 -73 0
68 -72 73 0
c gate 74 -33 -73 0
-33 -74 0
-73 -74 0
33 73 74 0
c gate 75 -11 -27 0
-11 -75 0
-27 -75 0
11 27 75 0
c gate 76 11 27 0
11 -76 0
27 -76 0
-11 -27 76 0
c gate 77 -75 -76 0
-75 -77 0
-76 -77 0
75 76 77 0
c gate 78 10 -26 0
10 -78 0
-26 -78 0
-10 26 78 0
c gate 79 -77 -78 0
-77 -79 0
-78 -79 0
77 78 79 0
c gate 80 -74 79 0
-74 -80 0
79 -80 0
74 -79 80 0
c gate 81 -16 -32 0
-16 -81 0
-32 -81 0
16 32 81 0
c gate 82 16 32 0
16 -82 0
32 -82 0
-16 -32 82 0
c gate 83 -81 -82 0
-81 -83 0
-82 -83 0
81 82 83 0
c gate 84 12 28 0
12 -84 0
28 -84 0
-12 -28 84 0
c gate 85 -12 -28 0
-12 -85 0
-28 -85 0
12 28 85 0
c gate 86 -84 -85 0
-84 -86 0
-85 -86 0
84 85 86 0
c gate 87 -83 -86 0
-83 -87 0
-86 -87 0
83 86 87 0
c gate 88 15 31 0
15 -88 0
31 -88 0
-15 -31 88 0
c gate 89 -15 -31 0
-15 -89 0
-31 -89 0
15 31 89 0
c gate 90 -88 -89 0
-88 -90 0
-89 -90 0
88 89 90 0
c gate 91 14 30 0
14 -91 0
30 -91 0
-14 -30 91 0
c gate 92 -14 -30 0
-14 -92 0
-30 -92 0
14 30 92 0
c gate 93 -91 -92 0
-91 -93 0
-92 -93 0
91 92 93 0
c gate 94 -13 -29 0
-13 -94 0
-29 -94 0
13 29 94 0
c gate 95 13 29 0
13 -95 0
29 -95 0
-13 -29 95 0
c gate 96 -94 -95 0
-94 -96 0
-95 -96 0
94 95 96 0
c gate 97 -93 -96 0
-93 -97 0
-96 -97 0
93 96 97 0
c gate 98 -90 97 0
-90 -98 0
97 -98 0
90 -97 98 0
c gate 99 87 98 0
87 -99 0
98 -99 0
-87 -98 99 0
c gate 100 80 99 0
80 -100 0
99 -100 0
-80 -99 100 0
c PO
100 0
